50
647 225 381 531 117 599 1053 529 935 1061 121 114 537 1060 555 898 772 146 566 744 260 233 768 401 791 378 177 475 888 449 646 874 378 967 142 551 342 271 1000 267 881 572 1046 986 117 1052 659 827 206 819 
547 125 281 431 17 499 953 429 835 961 21 14 437 960 455 798 672 46 466 644 160 133 668 301 691 278 77 375 788 349 546 774 278 867 42 451 242 171 900 167 781 472 946 886 17 952 559 727 106 719 
14363
